
<<< setup

Version identifier: 22.1.1.0 | 2022-11-27 | 9160aff4d
Tried aggregator 1 time.
LP Presolve eliminated 1782 rows and 1758 columns.
All rows and columns eliminated.
Presolve time = 0.00 sec. (2.77 ticks)
main returns 0

<<< main


<<< done

